<?xml version="1.0" encoding="UTF-8"?><osil xmlns="os.optimizationservices.org" xmlns:xsi="http://www.w3.org/2001/XMLSchema-instance" xsi:schemaLocation="os.optimizationservices.org http://www.optimizationservices.org/schemas/2.0/OSiL.xsd"><instanceHeader><name>syn20m</name></instanceHeader><instanceData><variables numberOfVariables="65"><var name="x2" ub="10"/><var name="x3"/><var name="x4"/><var name="x5"/><var name="x6"/><var name="x7"/><var name="x8"/><var name="x9"/><var name="x10"/><var name="x11"/><var name="x12"/><var name="x13" ub="7"/><var name="x14"/><var name="x15"/><var name="x16"/><var name="x17"/><var name="x18"/><var name="x19"/><var name="x20"/><var name="x21"/><var name="x22"/><var name="x23"/><var name="x24"/><var name="x25"/><var name="x26"/><var name="x27"/><var name="x28"/><var name="x29"/><var name="x30" ub="5"/><var name="x31" ub="5"/><var name="x32"/><var name="x33"/><var name="x34"/><var name="x35"/><var name="x36"/><var name="x37"/><var name="x38"/><var name="x39"/><var name="x40"/><var name="x41"/><var name="x42"/><var name="x43"/><var name="x44"/><var name="x45"/><var name="x46"/><var name="b47" type="B" ub="1"/><var name="b48" type="B" ub="1"/><var name="b49" type="B" ub="1"/><var name="b50" type="B" ub="1"/><var name="b51" type="B" ub="1"/><var name="b52" type="B" ub="1"/><var name="b53" type="B" ub="1"/><var name="b54" type="B" ub="1"/><var name="b55" type="B" ub="1"/><var name="b56" type="B" ub="1"/><var name="b57" type="B" ub="1"/><var name="b58" type="B" ub="1"/><var name="b59" type="B" ub="1"/><var name="b60" type="B" ub="1"/><var name="b61" type="B" ub="1"/><var name="b62" type="B" ub="1"/><var name="b63" type="B" ub="1"/><var name="b64" type="B" ub="1"/><var name="b65" type="B" ub="1"/><var name="b66" type="B" ub="1"/></variables><objectives><obj maxOrMin="max" name="defObj_objvar" numberOfObjCoef="30"><coef idx="6">5</coef><coef idx="36">200</coef><coef idx="37">2.5e2</coef><coef idx="38">200</coef><coef idx="39">700</coef><coef idx="40">400</coef><coef idx="41">500</coef><coef idx="42">400</coef><coef idx="43">600</coef><coef idx="44">700</coef><coef idx="45">-5</coef><coef idx="46">-8</coef><coef idx="47">-6</coef><coef idx="48">-10</coef><coef idx="49">-6</coef><coef idx="50">-7</coef><coef idx="51">-4</coef><coef idx="52">-5</coef><coef idx="53">-2</coef><coef idx="54">-4</coef><coef idx="55">-3</coef><coef idx="56">-7</coef><coef idx="57">-3</coef><coef idx="58">-2</coef><coef idx="59">-4</coef><coef idx="60">-2</coef><coef idx="61">-3</coef><coef idx="62">-5</coef><coef idx="63">-2</coef><coef idx="64">-8</coef></obj></objectives><constraints numberOfConstraints="113"><con name="e2" lb="0" ub="0"/><con name="e3" lb="0" ub="0"/><con name="e4" lb="0" ub="0"/><con name="e5" lb="0" ub="0"/><con name="e6" lb="0" ub="0"/><con name="e7" lb="0" ub="0"/><con name="e8" lb="0" ub="0"/><con name="e9" lb="0" ub="0"/><con name="e10" lb="0" ub="0"/><con name="e11" lb="0" ub="0"/><con name="e12" ub="1"/><con name="e13" ub="0"/><con name="e14" ub="0"/><con name="e15" ub="1"/><con name="e16" ub="0"/><con name="e17" ub="0"/><con name="e18" ub="1"/><con name="e19" lb="-1"/><con name="e20" ub="0"/><con name="e21" ub="0"/><con name="e22" ub="1"/><con name="e23" ub="0"/><con name="e24" ub="0"/><con name="e25" ub="1"/><con name="e26" lb="-1"/><con name="e27" ub="1"/><con name="e28" lb="-1"/><con name="e29" ub="0"/><con name="e30" ub="0"/><con name="e31" ub="0"/><con name="e32" ub="1"/><con name="e33" ub="0"/><con name="e34" ub="0"/><con name="e35" ub="1"/><con name="e36" ub="0"/><con name="e37" ub="0"/><con name="e38" ub="1"/><con name="e39" ub="0"/><con name="e40" ub="0"/><con name="e41" ub="1"/><con name="e42" lb="-1"/><con name="e43" ub="0"/><con name="e44" ub="0"/><con name="e45" ub="1"/><con name="e46" lb="-1"/><con name="e47" ub="0"/><con name="e48" ub="0"/><con name="e49" ub="1"/><con name="e50" ub="0"/><con name="e51" ub="0"/><con name="e52" ub="1"/><con name="e53" lb="-1"/><con name="e54" ub="1"/><con name="e55" lb="-1"/><con name="e56" ub="0"/><con name="e57" ub="0"/><con name="e58" ub="0"/><con name="e59" ub="1"/><con name="e60" ub="0"/><con name="e61" ub="0"/><con name="e62" ub="1"/><con name="e63" ub="0"/><con name="e64" ub="0"/><con name="e65" ub="1"/><con name="e66" ub="1"/><con name="e67" ub="0"/><con name="e68" ub="0"/><con name="e69" ub="0"/><con name="e70" ub="1"/><con name="e71" lb="-1"/><con name="e72" ub="0"/><con name="e73" ub="0"/><con name="e74" ub="1"/><con name="e75" lb="-1"/><con name="e76" ub="0"/><con name="e77" ub="0"/><con name="e78" ub="1"/><con name="e79" ub="0"/><con name="e80" ub="0"/><con name="e81" ub="1"/><con name="e82" ub="0"/><con name="e83" ub="0"/><con name="e84" ub="1"/><con name="e85" ub="0"/><con name="e86" ub="0"/><con name="e87" lb="1" ub="1"/><con name="e88" lb="0"/><con name="e89" lb="0"/><con name="e90" lb="0"/><con name="e91" lb="0"/><con name="e92" lb="0"/><con name="e93" lb="0"/><con name="e94" lb="0"/><con name="e95" lb="0"/><con name="e96" lb="0"/><con name="e97" lb="0"/><con name="e98" lb="0"/><con name="e99" lb="0"/><con name="e100" lb="0"/><con name="e101" lb="0"/><con name="e102" lb="0"/><con name="e103" lb="0"/><con name="e104" lb="0"/><con name="e105" lb="0"/><con name="e106" lb="0"/><con name="e107" lb="0"/><con name="e108" lb="0"/><con name="e109" lb="0"/><con name="e110" lb="0"/><con name="e111" lb="0"/><con name="e112" lb="0"/><con name="e113" lb="0"/><con name="e114" lb="0"/></constraints><linearConstraintCoefficients numberOfValues="267"><start><el mult="4" incr="3">0</el><el>13</el><el>16</el><el mult="4" incr="3">20</el><el mult="7" incr="2">33</el><el>48</el><el mult="6" incr="2">51</el><el mult="4" incr="3">64</el><el mult="12" incr="2">75</el><el>100</el><el mult="3" incr="2">103</el><el>110</el><el mult="6" incr="2">113</el><el mult="4" incr="3">126</el><el mult="14" incr="2">137</el><el>166</el><el mult="3" incr="2">169</el><el>176</el><el mult="13" incr="2">179</el><el mult="4" incr="2">206</el><el>215</el><el>219</el><el>221</el><el>224</el><el mult="4" incr="3">228</el><el mult="15" incr="2">239</el></start><colIdx><el mult="6" incr="1">0</el><el mult="3" incr="1">5</el><el mult="4" incr="1">7</el><el>12</el><el>15</el><el>16</el><el>14</el><el mult="3" incr="1">17</el><el>22</el><el>26</el><el>27</el><el>23</el><el>29</el><el>30</el><el>24</el><el>31</el><el>32</el><el>25</el><el mult="3" incr="1">33</el><el>3</el><el>45</el><el>1</el><el>45</el><el>3</el><el>45</el><el>4</el><el>46</el><el>2</el><el>46</el><el>4</el><el>46</el><el>8</el><el>12</el><el>47</el><el>8</el><el>12</el><el>47</el><el>8</el><el>47</el><el>12</el><el>47</el><el>13</el><el>48</el><el>9</el><el>48</el><el>13</el><el>48</el><el>10</el><el>14</el><el>49</el><el>10</el><el>14</el><el>49</el><el>11</el><el>14</el><el>49</el><el>11</el><el>14</el><el>49</el><el>10</el><el>49</el><el>11</el><el>49</el><el>14</el><el>49</el><el>20</el><el>50</el><el>15</el><el>50</el><el>20</el><el>50</el><el>21</el><el>51</el><el>16</el><el>51</el><el>21</el><el>51</el><el>22</el><el>52</el><el>13</el><el>52</el><el>22</el><el>52</el><el>17</el><el>23</el><el>53</el><el>17</el><el>23</el><el>53</el><el>17</el><el>53</el><el>23</el><el>53</el><el>18</el><el>24</el><el>54</el><el>18</el><el>24</el><el>54</el><el>18</el><el>54</el><el>24</el><el>54</el><el>25</el><el>55</el><el>19</el><el>55</el><el>25</el><el>55</el><el>20</el><el>36</el><el>56</el><el>20</el><el>36</el><el>56</el><el>28</el><el>36</el><el>56</el><el>28</el><el>36</el><el>56</el><el>20</el><el>56</el><el>28</el><el>56</el><el>36</el><el>56</el><el>37</el><el>57</el><el>21</el><el>57</el><el>37</el><el>57</el><el>38</el><el>58</el><el>26</el><el>58</el><el>38</el><el>58</el><el>39</el><el>59</el><el>39</el><el>59</el><el>27</el><el>59</el><el>30</el><el>59</el><el>39</el><el>59</el><el>31</el><el>40</el><el>60</el><el>31</el><el>40</el><el>60</el><el>31</el><el>60</el><el>40</el><el>60</el><el>32</el><el>41</el><el>61</el><el>32</el><el>41</el><el>61</el><el>32</el><el>61</el><el>41</el><el>61</el><el>42</el><el>62</el><el>33</el><el>62</el><el>42</el><el>62</el><el>43</el><el>63</el><el>34</el><el>63</el><el>43</el><el>63</el><el>44</el><el>64</el><el>35</el><el>64</el><el>44</el><el>64</el><el mult="3" incr="1">45</el><el>50</el><el>51</el><el>50</el><el>56</el><el>51</el><el>57</el><el>48</el><el mult="2">52</el><el>58</el><el>59</el><el>49</el><el mult="3" incr="1">53</el><el>53</el><el>59</el><el>54</el><el>60</el><el>61</el><el>55</el><el mult="3" incr="1">62</el><el mult="3" incr="1">45</el><el>45</el><el>46</el><el>48</el><el>45</el><el>46</el><el>49</el><el>47</el><el>50</el><el>47</el><el>51</el><el>48</el><el>52</el><el>49</el><el>53</el><el>49</el><el>54</el><el>49</el><el>55</el><el>50</el><el>56</el><el>51</el><el>57</el><el>52</el><el>58</el><el>52</el><el>59</el><el>54</el><el>60</el><el>54</el><el>61</el><el>55</el><el>62</el><el>55</el><el>63</el><el>55</el><el>64</el></colIdx><value><el>1</el><el mult="4">-1</el><el mult="2">1</el><el mult="2">-1</el><el>1</el><el mult="3">-1</el><el>1</el><el mult="2">-1</el><el>1</el><el mult="3">-1</el><el>1</el><el mult="4">-1</el><el mult="2">1</el><el mult="2">-1</el><el>1</el><el mult="3">-1</el><el mult="3">1</el><el>-10</el><el>1</el><el>-2.39789527279837</el><el mult="3">1</el><el>-10</el><el>1</el><el>-2.87747432735804</el><el>-.75</el><el mult="2">1</el><el>-.75</el><el>1</el><el>-1</el><el>1</el><el>-2.87747432735804</el><el>1</el><el>-2.15810574551853</el><el mult="3">1</el><el>-2.87747432735804</el><el>1</el><el>-2.03277599268042</el><el>-1</el><el mult="2">1</el><el>-1</el><el>1</el><el>-1</el><el>-.5</el><el mult="2">1</el><el>-.5</el><el>1</el><el>-1</el><el>1</el><el>-2.87747432735804</el><el>1</el><el>-7</el><el>1</el><el>-3.5</el><el mult="3">1</el><el>-2.15810574551853</el><el>1</el><el>-1.43746550029693</el><el mult="3">1</el><el>-2.15810574551853</el><el>1</el><el>-1.03497516021379</el><el mult="3">1</el><el>-2.03277599268042</el><el>1</el><el>-1.10947836929589</el><el>-.9</el><el mult="2">1</el><el>-.9</el><el>1</el><el>-1</el><el>1</el><el>-3.5</el><el>1</el><el>-3.15</el><el>-.6</el><el mult="2">1</el><el>-.6</el><el>1</el><el>-1</el><el>1</el><el>-3.5</el><el>1</el><el>-2.1</el><el mult="3">1</el><el>-3.5</el><el>1</el><el>-1.6544851364539</el><el>-.9</el><el mult="2">1</el><el>-.9</el><el>1</el><el mult="2">-1</el><el mult="2">1</el><el>-1</el><el>1</el><el>-1</el><el>1</el><el>-1.43746550029693</el><el>1</el><el>-5</el><el>1</el><el>-5</el><el mult="3">1</el><el>-1.03497516021379</el><el>1</el><el>-.710483612536911</el><el mult="3">1</el><el>-1.10947836929589</el><el>1</el><el>-.522508489006913</el><el mult="5">1</el><el>-1.10947836929589</el><el>1</el><el>-8.15</el><el>1</el><el>-1.43894002153683</el><el>-1</el><el mult="2">1</el><el>-1</el><el>1</el><el>-1</el><el>1</el><el>-2.1</el><el>1</el><el>-2.1</el><el>-1</el><el mult="2">1</el><el>-1</el><el>1</el><el>-1</el><el>1</el><el>-2.1</el><el>1</el><el>-2.1</el><el mult="3">1</el><el>-1.6544851364539</el><el>1</el><el>-.732188035236726</el><el mult="3">1</el><el>-1.6544851364539</el><el>1</el><el>-.781000570919175</el><el mult="3">1</el><el>-1.6544851364539</el><el>1</el><el>-.829813106601623</el><el mult="2">1</el><el>-1</el><el mult="2">1</el><el>-1</el><el>1</el><el>-1</el><el>1</el><el>-1</el><el>1</el><el>-1</el><el mult="2">1</el><el>-1</el><el mult="3">1</el><el>-1</el><el>1</el><el>-1</el><el mult="2">1</el><el>-1</el><el mult="5">1</el><el>-1</el><el mult="2">1</el><el>-1</el><el mult="2">1</el><el>-1</el><el>1</el><el>-1</el><el>1</el><el>-1</el><el>1</el><el>-1</el><el>1</el><el>-1</el><el>1</el><el>-1</el><el>1</el><el>-1</el><el>1</el><el>-1</el><el>1</el><el>-1</el><el>1</el><el>-1</el><el>1</el><el>-1</el><el>1</el><el>-1</el><el>1</el><el>-1</el><el>1</el><el>-1</el><el>1</el><el>-1</el><el>1</el><el>-1</el></value></linearConstraintCoefficients><nonlinearExpressions numberOfNonlinearExpressions="14"><nl idx="10"><negate><ln><sum><number value="1"/><variable idx="1"/></sum></ln></negate></nl><nl idx="13"><product><ln><sum><number value="1"/><variable idx="2"/></sum></ln><number value="-1.2"/></product></nl><nl idx="20"><product><ln><sum><number value="1"/><variable idx="9"/></sum></ln><number value="-1.5"/></product></nl><nl idx="30"><product><ln><sum><number value="1"/><variable idx="15"/></sum></ln><number value="-1.25"/></product></nl><nl idx="33"><product><ln><sum><number value="1"/><variable idx="16"/></sum></ln><number value="-.9"/></product></nl><nl idx="36"><negate><ln><sum><number value="1"/><variable idx="13"/></sum></ln></negate></nl><nl idx="47"><product><ln><sum><number value="1"/><variable idx="19"/></sum></ln><number value="-1.1"/></product></nl><nl idx="57"><negate><ln><sum><number value="1"/><variable idx="21"/></sum></ln></negate></nl><nl idx="60"><product><ln><sum><number value="1"/><variable idx="26"/></sum></ln><number value="-.7"/></product></nl><nl idx="63"><product><ln><sum><number value="1"/><variable idx="27"/></sum></ln><number value="-.65"/></product></nl><nl idx="64"><product><ln><sum><number value="1"/><variable idx="30"/></sum></ln><number value="-.65"/></product></nl><nl idx="76"><product><ln><sum><number value="1"/><variable idx="33"/></sum></ln><number value="-.75"/></product></nl><nl idx="79"><product><ln><sum><number value="1"/><variable idx="34"/></sum></ln><number value="-.8"/></product></nl><nl idx="82"><product><ln><sum><number value="1"/><variable idx="35"/></sum></ln><number value="-.85"/></product></nl></nonlinearExpressions></instanceData></osil>